
Gurobi 11.0.1 (win64) logging started Thu Apr 25 22:29:08 2024

Set parameter LogFile to value "gurobi.log"
Set parameter MIPGap to value 0.01
Set parameter TimeLimit to value 1200
Set parameter MIPFocus to value 1
Set parameter IntFeasTol to value 1e-06
Gurobi Optimizer version 11.0.1 build v11.0.1rc0 (win64 - Windows 11.0 (22631.2))

CPU model: Intel(R) Core(TM) i5-10300H CPU @ 2.50GHz, instruction set [SSE2|AVX|AVX2]
Thread count: 4 physical cores, 8 logical processors, using up to 8 threads

Optimize a model with 320 rows, 171 columns and 252 nonzeros
Model fingerprint: 0xfe0d49f2
Model has 112 general constraints
Variable types: 17 continuous, 154 integer (98 binary)
Coefficient statistics:
  Matrix range     [1e+00, 2e+02]
  Objective range  [1e+00, 1e+00]
  Bounds range     [1e+00, 1e+00]
  RHS range        [1e+00, 4e+02]
Presolve time: 0.00s

Explored 0 nodes (0 simplex iterations) in 0.01 seconds (0.00 work units)
Thread count was 1 (of 8 available processors)

Solution count 0

Model is infeasible
Best objective -, best bound -, gap -

Gurobi 11.0.1 (win64) logging started Thu Apr 25 22:29:16 2024

Set parameter LogFile to value "gurobi.log"
Set parameter MIPGap to value 0.01
Set parameter TimeLimit to value 1200
Set parameter MIPFocus to value 1
Set parameter IntFeasTol to value 1e-06
Gurobi Optimizer version 11.0.1 build v11.0.1rc0 (win64 - Windows 11.0 (22631.2))

CPU model: Intel(R) Core(TM) i5-10300H CPU @ 2.50GHz, instruction set [SSE2|AVX|AVX2]
Thread count: 4 physical cores, 8 logical processors, using up to 8 threads

Optimize a model with 96 rows, 171 columns and 252 nonzeros
Model fingerprint: 0x2e32875d
Variable types: 17 continuous, 154 integer (98 binary)
Coefficient statistics:
  Matrix range     [1e+00, 2e+02]
  Objective range  [1e+00, 1e+00]
  Bounds range     [1e+00, 1e+00]
  RHS range        [1e+00, 4e+02]
Found heuristic solution: objective 209.0000000
Presolve removed 80 rows and 139 columns
Presolve time: 0.02s
Presolved: 16 rows, 32 columns, 96 nonzeros
Variable types: 0 continuous, 32 integer (32 binary)

Explored 0 nodes (0 simplex iterations) in 0.04 seconds (0.00 work units)
Thread count was 8 (of 8 available processors)

Solution count 1: 209 

Optimal solution found (tolerance 1.00e-02)
Best objective 2.090000000000e+02, best bound 2.090000000000e+02, gap 0.0000%

Gurobi 11.0.1 (win64) logging started Thu Apr 25 22:30:14 2024

Set parameter LogFile to value "gurobi.log"
Set parameter MIPGap to value 0.01
Set parameter TimeLimit to value 1200
Set parameter MIPFocus to value 1
Set parameter IntFeasTol to value 1e-06
Gurobi Optimizer version 11.0.1 build v11.0.1rc0 (win64 - Windows 11.0 (22631.2))

CPU model: Intel(R) Core(TM) i5-10300H CPU @ 2.50GHz, instruction set [SSE2|AVX|AVX2]
Thread count: 4 physical cores, 8 logical processors, using up to 8 threads

Optimize a model with 572 rows, 171 columns and 216 nonzeros
Model fingerprint: 0x58d873f5
Model has 256 general constraints
Variable types: 17 continuous, 154 integer (98 binary)
Coefficient statistics:
  Matrix range     [1e+00, 2e+02]
  Objective range  [1e+00, 1e+00]
  Bounds range     [1e+00, 1e+00]
  RHS range        [1e+00, 4e+02]
Presolve time: 0.00s

Explored 0 nodes (0 simplex iterations) in 0.01 seconds (0.00 work units)
Thread count was 1 (of 8 available processors)

Solution count 0

Model is infeasible
Best objective -, best bound -, gap -

Gurobi 11.0.1 (win64) logging started Thu Apr 25 22:30:40 2024

Set parameter LogFile to value "gurobi.log"
Set parameter MIPGap to value 0.01
Set parameter TimeLimit to value 1200
Set parameter MIPFocus to value 1
Set parameter IntFeasTol to value 1e-06
Gurobi Optimizer version 11.0.1 build v11.0.1rc0 (win64 - Windows 11.0 (22631.2))

CPU model: Intel(R) Core(TM) i5-10300H CPU @ 2.50GHz, instruction set [SSE2|AVX|AVX2]
Thread count: 4 physical cores, 8 logical processors, using up to 8 threads

Optimize a model with 572 rows, 171 columns and 216 nonzeros
Model fingerprint: 0x1351e9f2
Model has 256 general constraints
Variable types: 17 continuous, 154 integer (98 binary)
Coefficient statistics:
  Matrix range     [1e+00, 2e+02]
  Objective range  [1e+00, 1e+00]
  Bounds range     [1e+00, 1e+00]
  RHS range        [1e+00, 4e+02]
Presolve time: 0.00s

Explored 0 nodes (0 simplex iterations) in 0.00 seconds (0.00 work units)
Thread count was 1 (of 8 available processors)

Solution count 0

Model is infeasible
Best objective -, best bound -, gap -

Gurobi 11.0.1 (win64) logging started Thu Apr 25 22:30:47 2024

Set parameter LogFile to value "gurobi.log"
Set parameter MIPGap to value 0.01
Set parameter TimeLimit to value 1200
Set parameter MIPFocus to value 1
Set parameter IntFeasTol to value 1e-06
Gurobi Optimizer version 11.0.1 build v11.0.1rc0 (win64 - Windows 11.0 (22631.2))

CPU model: Intel(R) Core(TM) i5-10300H CPU @ 2.50GHz, instruction set [SSE2|AVX|AVX2]
Thread count: 4 physical cores, 8 logical processors, using up to 8 threads

Optimize a model with 60 rows, 171 columns and 216 nonzeros
Model fingerprint: 0xed3575ef
Variable types: 17 continuous, 154 integer (98 binary)
Coefficient statistics:
  Matrix range     [1e+00, 2e+02]
  Objective range  [1e+00, 1e+00]
  Bounds range     [1e+00, 1e+00]
  RHS range        [1e+00, 4e+02]
Presolve removed 44 rows and 139 columns
Presolve time: 0.02s
Presolved: 16 rows, 32 columns, 96 nonzeros
Variable types: 0 continuous, 32 integer (32 binary)
Found heuristic solution: objective 283.0000000

Explored 0 nodes (0 simplex iterations) in 0.04 seconds (0.00 work units)
Thread count was 8 (of 8 available processors)

Solution count 1: 283 

Optimal solution found (tolerance 1.00e-02)
Best objective 2.830000000000e+02, best bound 2.830000000000e+02, gap 0.0000%

Gurobi 11.0.1 (win64) logging started Thu Apr 25 22:31:12 2024

Set parameter LogFile to value "gurobi.log"
Set parameter MIPGap to value 0.01
Set parameter TimeLimit to value 1200
Set parameter MIPFocus to value 1
Set parameter IntFeasTol to value 1e-06
Gurobi Optimizer version 11.0.1 build v11.0.1rc0 (win64 - Windows 11.0 (22631.2))

CPU model: Intel(R) Core(TM) i5-10300H CPU @ 2.50GHz, instruction set [SSE2|AVX|AVX2]
Thread count: 4 physical cores, 8 logical processors, using up to 8 threads

Optimize a model with 320 rows, 171 columns and 252 nonzeros
Model fingerprint: 0x774d8105
Variable types: 17 continuous, 154 integer (98 binary)
Coefficient statistics:
  Matrix range     [1e+00, 2e+02]
  Objective range  [1e+00, 1e+00]
  Bounds range     [1e+00, 1e+00]
  RHS range        [1e+00, 4e+02]
Presolve time: 0.00s

Explored 0 nodes (0 simplex iterations) in 0.00 seconds (0.00 work units)
Thread count was 1 (of 8 available processors)

Solution count 0

Model is infeasible
Best objective -, best bound -, gap -

Gurobi 11.0.1 (win64) logging started Thu Apr 25 22:31:23 2024

Set parameter LogFile to value "gurobi.log"
Set parameter MIPGap to value 0.01
Set parameter TimeLimit to value 1200
Set parameter MIPFocus to value 1
Set parameter IntFeasTol to value 1e-06
Gurobi Optimizer version 11.0.1 build v11.0.1rc0 (win64 - Windows 11.0 (22631.2))

CPU model: Intel(R) Core(TM) i5-10300H CPU @ 2.50GHz, instruction set [SSE2|AVX|AVX2]
Thread count: 4 physical cores, 8 logical processors, using up to 8 threads

Optimize a model with 208 rows, 171 columns and 252 nonzeros
Model fingerprint: 0xd8b04158
Variable types: 17 continuous, 154 integer (98 binary)
Coefficient statistics:
  Matrix range     [1e+00, 2e+02]
  Objective range  [1e+00, 1e+00]
  Bounds range     [1e+00, 1e+00]
  RHS range        [1e+00, 4e+02]
Presolve time: 0.00s

Explored 0 nodes (0 simplex iterations) in 0.00 seconds (0.00 work units)
Thread count was 1 (of 8 available processors)

Solution count 0

Model is infeasible
Best objective -, best bound -, gap -

Gurobi 11.0.1 (win64) logging started Thu Apr 25 22:31:34 2024

Set parameter LogFile to value "gurobi.log"
Set parameter MIPGap to value 0.01
Set parameter TimeLimit to value 1200
Set parameter MIPFocus to value 1
Set parameter IntFeasTol to value 1e-06
Gurobi Optimizer version 11.0.1 build v11.0.1rc0 (win64 - Windows 11.0 (22631.2))

CPU model: Intel(R) Core(TM) i5-10300H CPU @ 2.50GHz, instruction set [SSE2|AVX|AVX2]
Thread count: 4 physical cores, 8 logical processors, using up to 8 threads

Optimize a model with 96 rows, 171 columns and 252 nonzeros
Model fingerprint: 0x69c9b794
Variable types: 17 continuous, 154 integer (98 binary)
Coefficient statistics:
  Matrix range     [1e+00, 2e+02]
  Objective range  [1e+00, 1e+00]
  Bounds range     [1e+00, 1e+00]
  RHS range        [1e+00, 4e+02]
Presolve removed 80 rows and 139 columns
Presolve time: 0.00s
Presolved: 16 rows, 32 columns, 96 nonzeros
Variable types: 0 continuous, 32 integer (32 binary)
Found heuristic solution: objective 216.0000000

Explored 0 nodes (0 simplex iterations) in 0.00 seconds (0.00 work units)
Thread count was 8 (of 8 available processors)

Solution count 1: 216 

Optimal solution found (tolerance 1.00e-02)
Best objective 2.160000000000e+02, best bound 2.160000000000e+02, gap 0.0000%

Gurobi 11.0.1 (win64) logging started Thu Apr 25 22:34:29 2024

Set parameter LogFile to value "gurobi.log"
Set parameter MIPGap to value 0.01
Set parameter TimeLimit to value 1200
Set parameter MIPFocus to value 1
Set parameter IntFeasTol to value 1e-06
Gurobi Optimizer version 11.0.1 build v11.0.1rc0 (win64 - Windows 11.0 (22631.2))

CPU model: Intel(R) Core(TM) i5-10300H CPU @ 2.50GHz, instruction set [SSE2|AVX|AVX2]
Thread count: 4 physical cores, 8 logical processors, using up to 8 threads

Optimize a model with 96 rows, 171 columns and 252 nonzeros
Model fingerprint: 0x72512342
Model has 336 general constraints
Variable types: 17 continuous, 154 integer (98 binary)
Coefficient statistics:
  Matrix range     [1e+00, 2e+02]
  Objective range  [1e+00, 1e+00]
  Bounds range     [1e+00, 1e+00]
  RHS range        [1e+00, 3e+02]
  GenCon rhs range [1e+00, 1e+00]
  GenCon coe range [1e+00, 1e+00]
Presolve removed 80 rows and 139 columns
Presolve time: 0.03s
Presolved: 16 rows, 32 columns, 96 nonzeros
Variable types: 0 continuous, 32 integer (32 binary)
Found heuristic solution: objective 181.0000000

Explored 0 nodes (0 simplex iterations) in 0.05 seconds (0.00 work units)
Thread count was 8 (of 8 available processors)

Solution count 1: 181 

Optimal solution found (tolerance 1.00e-02)
Best objective 1.810000000000e+02, best bound 1.810000000000e+02, gap 0.0000%

Gurobi 11.0.1 (win64) logging started Fri Apr 26 00:05:13 2024

Set parameter LogFile to value "gurobi.log"
Set parameter MIPGap to value 0.01
Set parameter TimeLimit to value 1200
Set parameter MIPFocus to value 1
Set parameter IntFeasTol to value 1e-06
Gurobi Optimizer version 11.0.1 build v11.0.1rc0 (win64 - Windows 11.0 (22631.2))

CPU model: Intel(R) Core(TM) i5-10300H CPU @ 2.50GHz, instruction set [SSE2|AVX|AVX2]
Thread count: 4 physical cores, 8 logical processors, using up to 8 threads

Optimize a model with 96 rows, 171 columns and 280 nonzeros
Model fingerprint: 0x1fd00a84
Model has 336 general constraints
Variable types: 17 continuous, 154 integer (98 binary)
Coefficient statistics:
  Matrix range     [1e+00, 2e+02]
  Objective range  [1e+00, 1e+00]
  Bounds range     [1e+00, 1e+00]
  RHS range        [1e+00, 3e+02]
  GenCon rhs range [1e+00, 1e+00]
  GenCon coe range [1e+00, 1e+00]
Presolve removed 80 rows and 139 columns
Presolve time: 0.03s
Presolved: 16 rows, 32 columns, 96 nonzeros
Variable types: 0 continuous, 32 integer (32 binary)

Root relaxation: infeasible, 15 iterations, 0.01 seconds (0.00 work units)

    Nodes    |    Current Node    |     Objective Bounds      |     Work
 Expl Unexpl |  Obj  Depth IntInf | Incumbent    BestBd   Gap | It/Node Time

     0     0 infeasible    0               - infeasible      -     -    0s

Explored 1 nodes (15 simplex iterations) in 0.06 seconds (0.01 work units)
Thread count was 8 (of 8 available processors)

Solution count 0

Model is infeasible
Best objective -, best bound -, gap -

Gurobi 11.0.1 (win64) logging started Fri Apr 26 00:05:22 2024

Set parameter LogFile to value "gurobi.log"
Set parameter MIPGap to value 0.01
Set parameter TimeLimit to value 1200
Set parameter MIPFocus to value 1
Set parameter IntFeasTol to value 1e-06
Gurobi Optimizer version 11.0.1 build v11.0.1rc0 (win64 - Windows 11.0 (22631.2))

CPU model: Intel(R) Core(TM) i5-10300H CPU @ 2.50GHz, instruction set [SSE2|AVX|AVX2]
Thread count: 4 physical cores, 8 logical processors, using up to 8 threads

Optimize a model with 96 rows, 171 columns and 252 nonzeros
Model fingerprint: 0xa1d0ebaa
Model has 336 general constraints
Variable types: 17 continuous, 154 integer (98 binary)
Coefficient statistics:
  Matrix range     [1e+00, 2e+02]
  Objective range  [1e+00, 1e+00]
  Bounds range     [1e+00, 1e+00]
  RHS range        [1e+00, 3e+02]
  GenCon rhs range [1e+00, 1e+00]
  GenCon coe range [1e+00, 1e+00]
Presolve removed 80 rows and 139 columns
Presolve time: 0.01s
Presolved: 16 rows, 32 columns, 96 nonzeros
Variable types: 0 continuous, 32 integer (32 binary)
Found heuristic solution: objective 283.0000000

Explored 0 nodes (0 simplex iterations) in 0.01 seconds (0.00 work units)
Thread count was 8 (of 8 available processors)

Solution count 1: 283 

Optimal solution found (tolerance 1.00e-02)
Best objective 2.830000000000e+02, best bound 2.830000000000e+02, gap 0.0000%

Gurobi 11.0.1 (win64) logging started Fri Apr 26 00:05:29 2024

Set parameter LogFile to value "gurobi.log"
Set parameter MIPGap to value 0.01
Set parameter TimeLimit to value 1200
Set parameter MIPFocus to value 1
Set parameter IntFeasTol to value 1e-06
Gurobi Optimizer version 11.0.1 build v11.0.1rc0 (win64 - Windows 11.0 (22631.2))

CPU model: Intel(R) Core(TM) i5-10300H CPU @ 2.50GHz, instruction set [SSE2|AVX|AVX2]
Thread count: 4 physical cores, 8 logical processors, using up to 8 threads

Optimize a model with 96 rows, 171 columns and 280 nonzeros
Model fingerprint: 0x28f35747
Model has 336 general constraints
Variable types: 17 continuous, 154 integer (98 binary)
Coefficient statistics:
  Matrix range     [1e+00, 2e+02]
  Objective range  [1e+00, 1e+00]
  Bounds range     [1e+00, 1e+00]
  RHS range        [1e+00, 3e+02]
  GenCon rhs range [1e+00, 1e+00]
  GenCon coe range [1e+00, 1e+00]
Presolve removed 80 rows and 139 columns
Presolve time: 0.01s
Presolved: 16 rows, 32 columns, 96 nonzeros
Variable types: 0 continuous, 32 integer (32 binary)
Found heuristic solution: objective 560.0000000

Explored 0 nodes (0 simplex iterations) in 0.01 seconds (0.01 work units)
Thread count was 8 (of 8 available processors)

Solution count 1: 560 

Optimal solution found (tolerance 1.00e-02)
Best objective 5.600000000000e+02, best bound 5.600000000000e+02, gap 0.0000%

Gurobi 11.0.1 (win64) logging started Fri Apr 26 00:05:32 2024

Set parameter LogFile to value "gurobi.log"
Set parameter MIPGap to value 0.01
Set parameter TimeLimit to value 1200
Set parameter MIPFocus to value 1
Set parameter IntFeasTol to value 1e-06
Gurobi Optimizer version 11.0.1 build v11.0.1rc0 (win64 - Windows 11.0 (22631.2))

CPU model: Intel(R) Core(TM) i5-10300H CPU @ 2.50GHz, instruction set [SSE2|AVX|AVX2]
Thread count: 4 physical cores, 8 logical processors, using up to 8 threads

Optimize a model with 96 rows, 171 columns and 280 nonzeros
Model fingerprint: 0xa0808e67
Model has 336 general constraints
Variable types: 17 continuous, 154 integer (98 binary)
Coefficient statistics:
  Matrix range     [1e+00, 2e+02]
  Objective range  [1e+00, 1e+00]
  Bounds range     [1e+00, 1e+00]
  RHS range        [1e+00, 4e+02]
  GenCon rhs range [1e+00, 1e+00]
  GenCon coe range [1e+00, 1e+00]
Presolve removed 80 rows and 139 columns
Presolve time: 0.01s
Presolved: 16 rows, 32 columns, 96 nonzeros
Variable types: 0 continuous, 32 integer (32 binary)
Found heuristic solution: objective 630.0000000

Explored 0 nodes (0 simplex iterations) in 0.01 seconds (0.00 work units)
Thread count was 8 (of 8 available processors)

Solution count 1: 630 

Optimal solution found (tolerance 1.00e-02)
Best objective 6.300000000000e+02, best bound 6.300000000000e+02, gap 0.0000%

Gurobi 11.0.1 (win64) logging started Fri Apr 26 00:05:33 2024

Set parameter LogFile to value "gurobi.log"
Set parameter MIPGap to value 0.01
Set parameter TimeLimit to value 1200
Set parameter MIPFocus to value 1
Set parameter IntFeasTol to value 1e-06
Gurobi Optimizer version 11.0.1 build v11.0.1rc0 (win64 - Windows 11.0 (22631.2))

CPU model: Intel(R) Core(TM) i5-10300H CPU @ 2.50GHz, instruction set [SSE2|AVX|AVX2]
Thread count: 4 physical cores, 8 logical processors, using up to 8 threads

Optimize a model with 96 rows, 171 columns and 280 nonzeros
Model fingerprint: 0xcf552744
Model has 336 general constraints
Variable types: 17 continuous, 154 integer (98 binary)
Coefficient statistics:
  Matrix range     [1e+00, 2e+02]
  Objective range  [1e+00, 1e+00]
  Bounds range     [1e+00, 1e+00]
  RHS range        [1e+00, 3e+02]
  GenCon rhs range [1e+00, 1e+00]
  GenCon coe range [1e+00, 1e+00]
Presolve removed 80 rows and 139 columns
Presolve time: 0.01s
Presolved: 16 rows, 32 columns, 96 nonzeros
Variable types: 0 continuous, 32 integer (32 binary)
Found heuristic solution: objective 559.0000000

Explored 0 nodes (0 simplex iterations) in 0.01 seconds (0.00 work units)
Thread count was 8 (of 8 available processors)

Solution count 1: 559 

Optimal solution found (tolerance 1.00e-02)
Best objective 5.590000000000e+02, best bound 5.590000000000e+02, gap 0.0000%

Gurobi 11.0.1 (win64) logging started Fri Apr 26 00:05:35 2024

Set parameter LogFile to value "gurobi.log"
Set parameter MIPGap to value 0.01
Set parameter TimeLimit to value 1200
Set parameter MIPFocus to value 1
Set parameter IntFeasTol to value 1e-06
Gurobi Optimizer version 11.0.1 build v11.0.1rc0 (win64 - Windows 11.0 (22631.2))

CPU model: Intel(R) Core(TM) i5-10300H CPU @ 2.50GHz, instruction set [SSE2|AVX|AVX2]
Thread count: 4 physical cores, 8 logical processors, using up to 8 threads

Optimize a model with 96 rows, 171 columns and 280 nonzeros
Model fingerprint: 0x2f6cf995
Model has 336 general constraints
Variable types: 17 continuous, 154 integer (98 binary)
Coefficient statistics:
  Matrix range     [1e+00, 2e+02]
  Objective range  [1e+00, 1e+00]
  Bounds range     [1e+00, 1e+00]
  RHS range        [1e+00, 4e+02]
  GenCon rhs range [1e+00, 1e+00]
  GenCon coe range [1e+00, 1e+00]
Presolve removed 80 rows and 139 columns
Presolve time: 0.01s
Presolved: 16 rows, 32 columns, 96 nonzeros
Variable types: 0 continuous, 32 integer (32 binary)

Root relaxation: objective 4.730000e+02, 11 iterations, 0.01 seconds (0.00 work units)

    Nodes    |    Current Node    |     Objective Bounds      |     Work
 Expl Unexpl |  Obj  Depth IntInf | Incumbent    BestBd   Gap | It/Node Time

*    0     0               0     473.0000000  473.00000  0.00%     -    0s

Explored 1 nodes (11 simplex iterations) in 0.02 seconds (0.01 work units)
Thread count was 8 (of 8 available processors)

Solution count 1: 473 

Optimal solution found (tolerance 1.00e-02)
Best objective 4.730000000000e+02, best bound 4.730000000000e+02, gap 0.0000%

Gurobi 11.0.1 (win64) logging started Fri Apr 26 00:05:37 2024

Set parameter LogFile to value "gurobi.log"
Set parameter MIPGap to value 0.01
Set parameter TimeLimit to value 1200
Set parameter MIPFocus to value 1
Set parameter IntFeasTol to value 1e-06
Gurobi Optimizer version 11.0.1 build v11.0.1rc0 (win64 - Windows 11.0 (22631.2))

CPU model: Intel(R) Core(TM) i5-10300H CPU @ 2.50GHz, instruction set [SSE2|AVX|AVX2]
Thread count: 4 physical cores, 8 logical processors, using up to 8 threads

Optimize a model with 96 rows, 171 columns and 280 nonzeros
Model fingerprint: 0x392011bb
Model has 336 general constraints
Variable types: 17 continuous, 154 integer (98 binary)
Coefficient statistics:
  Matrix range     [1e+00, 2e+02]
  Objective range  [1e+00, 1e+00]
  Bounds range     [1e+00, 1e+00]
  RHS range        [1e+00, 4e+02]
  GenCon rhs range [1e+00, 1e+00]
  GenCon coe range [1e+00, 1e+00]
Presolve removed 81 rows and 139 columns
Presolve time: 0.01s
Presolved: 15 rows, 32 columns, 88 nonzeros
Variable types: 0 continuous, 32 integer (32 binary)

Root relaxation: infeasible, 22 iterations, 0.00 seconds (0.00 work units)

    Nodes    |    Current Node    |     Objective Bounds      |     Work
 Expl Unexpl |  Obj  Depth IntInf | Incumbent    BestBd   Gap | It/Node Time

     0     0 infeasible    0               - infeasible      -     -    0s

Explored 1 nodes (22 simplex iterations) in 0.02 seconds (0.00 work units)
Thread count was 8 (of 8 available processors)

Solution count 0

Model is infeasible
Best objective -, best bound -, gap -

Gurobi 11.0.1 (win64) logging started Fri Apr 26 00:05:40 2024

Set parameter LogFile to value "gurobi.log"
Set parameter MIPGap to value 0.01
Set parameter TimeLimit to value 1200
Set parameter MIPFocus to value 1
Set parameter IntFeasTol to value 1e-06
Gurobi Optimizer version 11.0.1 build v11.0.1rc0 (win64 - Windows 11.0 (22631.2))

CPU model: Intel(R) Core(TM) i5-10300H CPU @ 2.50GHz, instruction set [SSE2|AVX|AVX2]
Thread count: 4 physical cores, 8 logical processors, using up to 8 threads

Optimize a model with 96 rows, 171 columns and 280 nonzeros
Model fingerprint: 0xadb582bf
Model has 336 general constraints
Variable types: 17 continuous, 154 integer (98 binary)
Coefficient statistics:
  Matrix range     [1e+00, 2e+02]
  Objective range  [1e+00, 1e+00]
  Bounds range     [1e+00, 1e+00]
  RHS range        [1e+00, 4e+02]
  GenCon rhs range [1e+00, 1e+00]
  GenCon coe range [1e+00, 1e+00]
Presolve removed 80 rows and 139 columns
Presolve time: 0.01s
Presolved: 16 rows, 32 columns, 96 nonzeros
Variable types: 0 continuous, 32 integer (32 binary)
Found heuristic solution: objective 624.0000000

Explored 0 nodes (0 simplex iterations) in 0.01 seconds (0.01 work units)
Thread count was 8 (of 8 available processors)

Solution count 1: 624 

Optimal solution found (tolerance 1.00e-02)
Best objective 6.240000000000e+02, best bound 6.240000000000e+02, gap 0.0000%
